
Welcome to IBM(R) ILOG(R) CPLEX(R) Interactive Optimizer 22.1.1.0
  with Simplex, Mixed Integer & Barrier Optimizers
5725-A06 5725-A29 5724-Y48 5724-Y49 5724-Y54 5724-Y55 5655-Y21
Copyright IBM Corp. 1988, 2022.  All Rights Reserved.

Type 'help' for a list of available commands.
Type 'help' followed by a command name for more
information on commands.

CPLEX> Selected objective sense:  MINIMIZE
Selected objective  name:  00000000
Selected RHS        name:  RHS1
Selected bound      name:  BOUND
Problem 'ee.mps' read.
Read time = 0.02 sec. (3.17 ticks)
CPLEX> New value for time limit in seconds: 7200
CPLEX> New value for parallel optimization mode: -1
CPLEX> New value for default parallel thread count: 40
CPLEX> New value for mixed integer optimality gap tolerance: 1e-13
CPLEX> Version identifier: 22.1.1.0 | 2022-11-28 | 9160aff4d
CPXPARAM_Threads                                 40
CPXPARAM_Parallel                                -1
CPXPARAM_TimeLimit                               7200
CPXPARAM_MIP_Tolerances_MIPGap                   1e-13
Found incumbent of value 0.000000 after 0.00 sec. (0.31 ticks)
Tried aggregator 2 times.
MIP Presolve eliminated 184 rows and 2745 columns.
MIP Presolve modified 6090 coefficients.
Aggregator did 713 substitutions.
Reduced MIP has 3636 rows, 7840 columns, and 28953 nonzeros.
Reduced MIP has 7840 binaries, 0 generals, 0 SOSs, and 0 indicators.
Presolve time = 0.07 sec. (69.13 ticks)
Probing time = 0.03 sec. (5.35 ticks)
Tried aggregator 1 time.
Detecting symmetries...
Reduced MIP has 3636 rows, 7840 columns, and 28953 nonzeros.
Reduced MIP has 7840 binaries, 0 generals, 0 SOSs, and 0 indicators.
Presolve time = 0.02 sec. (22.07 ticks)
Probing time = 0.02 sec. (5.13 ticks)
Clique table members: 18788.
MIP emphasis: balance optimality and feasibility.
MIP search method: dynamic search.
Parallel mode: opportunistic, using up to 40 threads.
Root relaxation solution time = 0.17 sec. (160.28 ticks)

        Nodes                                         Cuts/
   Node  Left     Objective  IInf  Best Integer    Best Bound    ItCnt     Gap

*     0+    0                            0.0000  -1.54000e+13              --- 
*     0+    0                      -4.80000e+12  -1.54000e+13           220.83%
      0     0  -1.53900e+13   122  -4.80000e+12  -1.53900e+13     3147  220.63%
*     0+    0                      -1.53900e+13  -1.53900e+13             0.00%
*     0+    0                      -1.53900e+13  -1.53900e+13             0.00%
      0     0  -1.53900e+13   123  -1.53900e+13      Cuts: 99     3845    0.00%
*     0+    0                      -1.53900e+13  -1.53900e+13             0.00%
      0     0  -1.53900e+13   139  -1.53900e+13     Cuts: 100     4372    0.00%
*     0+    0                      -1.53900e+13  -1.53900e+13             0.00%
      0    35    infeasible        -1.53900e+13  -1.53900e+13    10084    0.00%
Elapsed time = 2.36 sec. (1191.09 ticks, tree = 0.02 MB, solutions = 7)
*    21+   14                      -1.53900e+13  -1.53900e+13             0.00%
    110    45  -1.53900e+13   174  -1.53900e+13  -1.53900e+13    11828    0.00%
    710   395  -1.53900e+13   111  -1.53900e+13  -1.53900e+13    79860    0.00%
   1398   529  -1.53900e+13   142  -1.53900e+13  -1.53900e+13   111838    0.00%
   2108   485  -1.53900e+13    68  -1.53900e+13  -1.53900e+13    97259    0.00%
   2744   684        cutoff        -1.53900e+13  -1.53900e+13   148745    0.00%
   3307   831  -1.53900e+13   205  -1.53900e+13  -1.53900e+13   192023    0.00%
   3806   983  -1.53900e+13   120  -1.53900e+13  -1.53900e+13   222081    0.00%
   4190  1335        cutoff        -1.53900e+13  -1.53900e+13   311541    0.00%
   4649  1342  -1.53900e+13    62  -1.53900e+13  -1.53900e+13   315173    0.00%
   6395  2818  -1.53900e+13   113  -1.53900e+13  -1.53900e+13   808784    0.00%
Elapsed time = 8.43 sec. (4296.47 ticks, tree = 10.29 MB, solutions = 18)
   7563  3414        cutoff        -1.53900e+13  -1.53900e+13  1255560    0.00%
   8269  2974  -1.53900e+13   160  -1.53900e+13  -1.53900e+13   898118    0.00%
   8718  3320        cutoff        -1.53900e+13  -1.53900e+13  1159696    0.00%
   9192  3376        cutoff        -1.53900e+13  -1.53900e+13  1224575    0.00%
   9530  3536        cutoff        -1.53900e+13  -1.53900e+13  1480943    0.00%

Performing restart 1

Repeating presolve.
Tried aggregator 4 times.
MIP Presolve eliminated 871 rows and 2465 columns.
MIP Presolve modified 2348 coefficients.
Aggregator did 290 substitutions.
Reduced MIP has 2397 rows, 5060 columns, and 18180 nonzeros.
Reduced MIP has 5060 binaries, 0 generals, 0 SOSs, and 0 indicators.
Presolve time = 0.09 sec. (85.53 ticks)
Tried aggregator 2 times.
MIP Presolve eliminated 43 rows and 82 columns.
MIP Presolve modified 12 coefficients.
Aggregator did 6 substitutions.
Reduced MIP has 2348 rows, 4959 columns, and 17832 nonzeros.
Reduced MIP has 4959 binaries, 0 generals, 0 SOSs, and 0 indicators.
Presolve time = 0.04 sec. (36.94 ticks)
Tried aggregator 1 time.
Reduced MIP has 2348 rows, 4959 columns, and 17832 nonzeros.
Reduced MIP has 4959 binaries, 0 generals, 0 SOSs, and 0 indicators.
Presolve time = 0.02 sec. (13.52 ticks)
Represolve time = 0.33 sec. (223.39 ticks)
   9591     0  -1.53900e+13   338  -1.53900e+13      Cuts: 60  1952507    0.00%
   9591     0  -1.53900e+13   306  -1.53900e+13      Cuts: 48  1953154    0.00%
   9591     0  -1.53900e+13   264  -1.53900e+13      Cuts: 78  1953552    0.00%
   9591     0  -1.53900e+13   261  -1.53900e+13      Cuts: 53  1954086    0.00%
   9591     0  -1.53900e+13   289  -1.53900e+13      Cuts: 61  1954346    0.00%
   9591     0  -1.53900e+13   315  -1.53900e+13      Cuts: 43  1954579    0.00%
   9591     0  -1.53900e+13   347  -1.53900e+13      Cuts: 60  1954933    0.00%
   9591     0  -1.53900e+13   388  -1.53900e+13      Cuts: 52  1955368    0.00%
   9591     0  -1.53900e+13   309  -1.53900e+13      Cuts: 63  1955565    0.00%
   9591     0  -1.53900e+13   370  -1.53900e+13      Cuts: 52  1955830    0.00%
   9591     0  -1.53900e+13   351  -1.53900e+13      Cuts: 41  1956018    0.00%
   9591     0  -1.53900e+13   319  -1.53900e+13      Cuts: 46  1956087    0.00%
   9591     0  -1.53900e+13   310  -1.53900e+13      Cuts: 43  1956141    0.00%
   9591     0  -1.53900e+13   365  -1.53900e+13      Cuts: 30  1956287    0.00%
   9591     0  -1.53900e+13   314  -1.53900e+13      Cuts: 30  1956416    0.00%
   9591     0  -1.53900e+13   362  -1.53900e+13      Cuts: 23  1956490    0.00%
   9591     0  -1.53900e+13   369  -1.53900e+13      Cuts: 39  1956600    0.00%
   9591     5        cutoff        -1.53900e+13  -1.53900e+13  1966737    0.00%
  10234    39  -1.53900e+13   129  -1.53900e+13  -1.53900e+13  1999456    0.00%

GUB cover cuts applied:  11
Clique cuts applied:  15
Cover cuts applied:  271
Flow cuts applied:  2
Mixed integer rounding cuts applied:  41
Zero-half cuts applied:  85
Lift and project cuts applied:  2
Gomory fractional cuts applied:  17

Root node processing (before b&c):
  Real time             =    1.44 sec. (1186.04 ticks)
Parallel b&c, 40 threads:
  Real time             =   22.07 sec. (15198.48 ticks)
  Sync time (average)   =    4.31 sec.
  Wait time (average)   =    0.08 sec.
                          ------------
Total (root+branch&cut) =   23.51 sec. (16384.52 ticks)

Solution pool: 20 solutions saved.

MIP - Integer optimal solution:  Objective = -1.5389999089e+13
Solution time =   23.63 sec.  Iterations = 2021179  Nodes = 10548
Deterministic time = 16384.55 ticks  (693.33 ticks/sec)

CPLEX> Solution 'p21' written to file 'ee.sol'.
CPLEX> 